NAME : mEgtspf.pid7080.gtsp.268435639.tour
COMMENT : Length = 268435639
COMMENT : Found by LKH [Keld Helsgaun] Tue Mar 25 10:32:50 2025
TYPE : TOUR
DIMENSION : 170
TOUR_SECTION
1
135
136
137
138
66
63
64
65
169
170
167
168
108
109
110
107
96
97
98
95
10
4
13
14
11
12
88
89
90
87
5
38
35
36
37
126
123
124
125
111
112
113
114
3
149
150
147
148
6
29
30
27
28
62
59
60
61
46
43
44
45
120
121
122
119
115
116
117
118
162
159
160
161
47
48
49
50
80
81
82
79
127
128
129
130
52
53
54
51
100
101
102
99
2
74
71
72
73
134
131
132
133
33
34
31
32
103
104
105
106
9
151
152
153
154
78
75
76
77
166
163
164
165
7
86
83
84
85
42
39
40
41
23
24
25
26
158
155
156
157
8
92
93
94
91
19
20
21
22
16
17
18
15
70
67
68
69
58
55
56
57
140
141
142
139
144
145
146
143
-1
EOF
